\ LP format - for model browsing. Use MPS format to capture full model detail.
Minimize
  0 f + 0 alpha[0,1] + 0 alpha[0,2] + 0 alpha[0,3] + 0 alpha[0,4]
   + 0 alpha[0,5] + 0 alpha[0,6] + 0 alpha[0,7] + 0 alpha[0,8]
   + 0 alpha[0,9] + 0 alpha[1,2] + 0 alpha[1,3] + 0 alpha[1,4]
   + 0 alpha[1,5] + 0 alpha[1,6] + 0 alpha[1,7] + 0 alpha[1,8]
   + 0 alpha[1,9] + 0 alpha[2,3] + 0 alpha[2,4] + 0 alpha[2,5]
   + 0 alpha[2,6] + 0 alpha[2,7] + 0 alpha[2,8] + 0 alpha[2,9]
   + 0 alpha[3,4] + 0 alpha[3,5] + 0 alpha[3,6] + 0 alpha[3,7]
   + 0 alpha[3,8] + 0 alpha[3,9] + 0 alpha[4,5] + 0 alpha[4,6]
   + 0 alpha[4,7] + 0 alpha[4,8] + 0 alpha[4,9] + 0 alpha[5,6]
   + 0 alpha[5,7] + 0 alpha[5,8] + 0 alpha[5,9] + 0 alpha[6,7]
   + 0 alpha[6,8] + 0 alpha[6,9] + 0 alpha[7,8] + 0 alpha[7,9]
   + 0 alpha[8,9] + 0 beta[0] + 0 beta[1] + 0 beta[2] + 0 beta[3]
   + 0 beta[4] + 0 beta[5] + 0 beta[6] + 0 beta[7] + 0 beta[8]
   + 0 gamma[0,1] + 0 gamma[0,2] + 0 gamma[0,3] + 0 gamma[0,4]
   + 0 gamma[0,5] + 0 gamma[0,6] + 0 gamma[0,7] + 0 gamma[0,8]
   + 0 gamma[0,9] + 0 gamma[1,2] + 0 gamma[1,3] + 0 gamma[1,4]
   + 0 gamma[1,5] + 0 gamma[1,6] + 0 gamma[1,7] + 0 gamma[1,8]
   + 0 gamma[1,9] + 0 gamma[2,3] + 0 gamma[2,4] + 0 gamma[2,5]
   + 0 gamma[2,6] + 0 gamma[2,7] + 0 gamma[2,8] + 0 gamma[2,9]
   + 0 gamma[3,4] + 0 gamma[3,5] + 0 gamma[3,6] + 0 gamma[3,7]
   + 0 gamma[3,8] + 0 gamma[3,9] + 0 gamma[4,5] + 0 gamma[4,6]
   + 0 gamma[4,7] + 0 gamma[4,8] + 0 gamma[4,9] + 0 gamma[5,6]
   + 0 gamma[5,7] + 0 gamma[5,8] + 0 gamma[5,9] + 0 gamma[6,7]
   + 0 gamma[6,8] + 0 gamma[6,9] + 0 gamma[7,8] + 0 gamma[7,9]
   + 0 gamma[8,9] + 0 x[0,1] + 0 x[0,2] + 0 x[0,3] + 0 x[0,4] + 0 x[0,5]
   + 0 x[0,6] + 0 x[0,7] + 0 x[0,8] + 0 x[0,9] + 0 x[1,2] + 0 x[1,3]
   + 0 x[1,4] + 0 x[1,5] + 0 x[1,6] + 0 x[1,7] + 0 x[1,8] + 0 x[1,9]
   + 0 x[2,3] + 0 x[2,4] + 0 x[2,5] + 0 x[2,6] + 0 x[2,7] + 0 x[2,8]
   + 0 x[2,9] + 0 x[3,4] + 0 x[3,5] + 0 x[3,6] + 0 x[3,7] + 0 x[3,8]
   + 0 x[3,9] + 0 x[4,5] + 0 x[4,6] + 0 x[4,7] + 0 x[4,8] + 0 x[4,9]
   + 0 x[5,6] + 0 x[5,7] + 0 x[5,8] + 0 x[5,9] + 0 x[6,7] + 0 x[6,8]
   + 0 x[6,9] + 0 x[7,8] + 0 x[7,9] + 0 x[8,9] + 0 y[0,1] + 0 y[0,2]
   + 0 y[0,3] + 0 y[0,4] + 0 y[0,5] + 0 y[0,6] + 0 y[0,7] + 0 y[0,8]
   + 0 y[0,9] + 0 y[1,2] + 0 y[1,3] + 0 y[1,4] + 0 y[1,5] + 0 y[1,6]
   + 0 y[1,7] + 0 y[1,8] + 0 y[1,9] + 0 y[2,3] + 0 y[2,4] + 0 y[2,5]
   + 0 y[2,6] + 0 y[2,7] + 0 y[2,8] + 0 y[2,9] + 0 y[3,4] + 0 y[3,5]
   + 0 y[3,6] + 0 y[3,7] + 0 y[3,8] + 0 y[3,9] + 0 y[4,5] + 0 y[4,6]
   + 0 y[4,7] + 0 y[4,8] + 0 y[4,9] + 0 y[5,6] + 0 y[5,7] + 0 y[5,8]
   + 0 y[5,9] + 0 y[6,7] + 0 y[6,8] + 0 y[6,9] + 0 y[7,8] + 0 y[7,9]
   + 0 y[8,9] + 0 z[0,1] + 0 z[0,2] + 0 z[0,3] + 0 z[0,4] + 0 z[0,5]
   + 0 z[0,6] + 0 z[0,7] + 0 z[0,8] + 0 z[0,9] + 0 z[1,2] + 0 z[1,3]
   + 0 z[1,4] + 0 z[1,5] + 0 z[1,6] + 0 z[1,7] + 0 z[1,8] + 0 z[1,9]
   + 0 z[2,3] + 0 z[2,4] + 0 z[2,5] + 0 z[2,6] + 0 z[2,7] + 0 z[2,8]
   + 0 z[2,9] + 0 z[3,4] + 0 z[3,5] + 0 z[3,6] + 0 z[3,7] + 0 z[3,8]
   + 0 z[3,9] + 0 z[4,5] + 0 z[4,6] + 0 z[4,7] + 0 z[4,8] + 0 z[4,9]
   + 0 z[5,6] + 0 z[5,7] + 0 z[5,8] + 0 z[5,9] + 0 z[6,7] + 0 z[6,8]
   + 0 z[6,9] + 0 z[7,8] + 0 z[7,9] + 0 z[8,9]
Subject To
Bounds
 f <= 20
 x[0,1] <= 500
 x[0,2] <= 500
 x[0,3] <= 500
 x[0,4] <= 500
 x[0,5] <= 500
 x[0,6] <= 500
 x[0,7] <= 500
 x[0,8] <= 500
 x[0,9] <= 500
 x[1,2] <= 500
 x[1,3] <= 500
 x[1,4] <= 500
 x[1,5] <= 500
 x[1,6] <= 500
 x[1,7] <= 500
 x[1,8] <= 500
 x[1,9] <= 500
 x[2,3] <= 500
 x[2,4] <= 500
 x[2,5] <= 500
 x[2,6] <= 500
 x[2,7] <= 500
 x[2,8] <= 500
 x[2,9] <= 500
 x[3,4] <= 500
 x[3,5] <= 500
 x[3,6] <= 500
 x[3,7] <= 500
 x[3,8] <= 500
 x[3,9] <= 500
 x[4,5] <= 500
 x[4,6] <= 500
 x[4,7] <= 500
 x[4,8] <= 500
 x[4,9] <= 500
 x[5,6] <= 500
 x[5,7] <= 500
 x[5,8] <= 500
 x[5,9] <= 500
 x[6,7] <= 500
 x[6,8] <= 500
 x[6,9] <= 500
 x[7,8] <= 500
 x[7,9] <= 500
 x[8,9] <= 500
 y[0,1] <= 500
 y[0,2] <= 500
 y[0,3] <= 500
 y[0,4] <= 500
 y[0,5] <= 500
 y[0,6] <= 500
 y[0,7] <= 500
 y[0,8] <= 500
 y[0,9] <= 500
 y[1,2] <= 500
 y[1,3] <= 500
 y[1,4] <= 500
 y[1,5] <= 500
 y[1,6] <= 500
 y[1,7] <= 500
 y[1,8] <= 500
 y[1,9] <= 500
 y[2,3] <= 500
 y[2,4] <= 500
 y[2,5] <= 500
 y[2,6] <= 500
 y[2,7] <= 500
 y[2,8] <= 500
 y[2,9] <= 500
 y[3,4] <= 500
 y[3,5] <= 500
 y[3,6] <= 500
 y[3,7] <= 500
 y[3,8] <= 500
 y[3,9] <= 500
 y[4,5] <= 500
 y[4,6] <= 500
 y[4,7] <= 500
 y[4,8] <= 500
 y[4,9] <= 500
 y[5,6] <= 500
 y[5,7] <= 500
 y[5,8] <= 500
 y[5,9] <= 500
 y[6,7] <= 500
 y[6,8] <= 500
 y[6,9] <= 500
 y[7,8] <= 500
 y[7,9] <= 500
 y[8,9] <= 500
 z[0,1] <= 500
 z[0,2] <= 500
 z[0,3] <= 500
 z[0,4] <= 500
 z[0,5] <= 500
 z[0,6] <= 500
 z[0,7] <= 500
 z[0,8] <= 500
 z[0,9] <= 500
 z[1,2] <= 500
 z[1,3] <= 500
 z[1,4] <= 500
 z[1,5] <= 500
 z[1,6] <= 500
 z[1,7] <= 500
 z[1,8] <= 500
 z[1,9] <= 500
 z[2,3] <= 500
 z[2,4] <= 500
 z[2,5] <= 500
 z[2,6] <= 500
 z[2,7] <= 500
 z[2,8] <= 500
 z[2,9] <= 500
 z[3,4] <= 500
 z[3,5] <= 500
 z[3,6] <= 500
 z[3,7] <= 500
 z[3,8] <= 500
 z[3,9] <= 500
 z[4,5] <= 500
 z[4,6] <= 500
 z[4,7] <= 500
 z[4,8] <= 500
 z[4,9] <= 500
 z[5,6] <= 500
 z[5,7] <= 500
 z[5,8] <= 500
 z[5,9] <= 500
 z[6,7] <= 500
 z[6,8] <= 500
 z[6,9] <= 500
 z[7,8] <= 500
 z[7,9] <= 500
 z[8,9] <= 500
Binaries
 alpha[0,1] alpha[0,2] alpha[0,3] alpha[0,4] alpha[0,5] alpha[0,6]
 alpha[0,7] alpha[0,8] alpha[0,9] alpha[1,2] alpha[1,3] alpha[1,4]
 alpha[1,5] alpha[1,6] alpha[1,7] alpha[1,8] alpha[1,9] alpha[2,3]
 alpha[2,4] alpha[2,5] alpha[2,6] alpha[2,7] alpha[2,8] alpha[2,9]
 alpha[3,4] alpha[3,5] alpha[3,6] alpha[3,7] alpha[3,8] alpha[3,9]
 alpha[4,5] alpha[4,6] alpha[4,7] alpha[4,8] alpha[4,9] alpha[5,6]
 alpha[5,7] alpha[5,8] alpha[5,9] alpha[6,7] alpha[6,8] alpha[6,9]
 alpha[7,8] alpha[7,9] alpha[8,9] beta[0] beta[1] beta[2] beta[3] beta[4]
 beta[5] beta[6] beta[7] beta[8] gamma[0,1] gamma[0,2] gamma[0,3]
 gamma[0,4] gamma[0,5] gamma[0,6] gamma[0,7] gamma[0,8] gamma[0,9]
 gamma[1,2] gamma[1,3] gamma[1,4] gamma[1,5] gamma[1,6] gamma[1,7]
 gamma[1,8] gamma[1,9] gamma[2,3] gamma[2,4] gamma[2,5] gamma[2,6]
 gamma[2,7] gamma[2,8] gamma[2,9] gamma[3,4] gamma[3,5] gamma[3,6]
 gamma[3,7] gamma[3,8] gamma[3,9] gamma[4,5] gamma[4,6] gamma[4,7]
 gamma[4,8] gamma[4,9] gamma[5,6] gamma[5,7] gamma[5,8] gamma[5,9]
 gamma[6,7] gamma[6,8] gamma[6,9] gamma[7,8] gamma[7,9] gamma[8,9]
Generals
 f x[0,1] x[0,2] x[0,3] x[0,4] x[0,5] x[0,6] x[0,7] x[0,8] x[0,9] x[1,2]
 x[1,3] x[1,4] x[1,5] x[1,6] x[1,7] x[1,8] x[1,9] x[2,3] x[2,4] x[2,5]
 x[2,6] x[2,7] x[2,8] x[2,9] x[3,4] x[3,5] x[3,6] x[3,7] x[3,8] x[3,9]
 x[4,5] x[4,6] x[4,7] x[4,8] x[4,9] x[5,6] x[5,7] x[5,8] x[5,9] x[6,7]
 x[6,8] x[6,9] x[7,8] x[7,9] x[8,9] y[0,1] y[0,2] y[0,3] y[0,4] y[0,5]
 y[0,6] y[0,7] y[0,8] y[0,9] y[1,2] y[1,3] y[1,4] y[1,5] y[1,6] y[1,7]
 y[1,8] y[1,9] y[2,3] y[2,4] y[2,5] y[2,6] y[2,7] y[2,8] y[2,9] y[3,4]
 y[3,5] y[3,6] y[3,7] y[3,8] y[3,9] y[4,5] y[4,6] y[4,7] y[4,8] y[4,9]
 y[5,6] y[5,7] y[5,8] y[5,9] y[6,7] y[6,8] y[6,9] y[7,8] y[7,9] y[8,9]
 z[0,1] z[0,2] z[0,3] z[0,4] z[0,5] z[0,6] z[0,7] z[0,8] z[0,9] z[1,2]
 z[1,3] z[1,4] z[1,5] z[1,6] z[1,7] z[1,8] z[1,9] z[2,3] z[2,4] z[2,5]
 z[2,6] z[2,7] z[2,8] z[2,9] z[3,4] z[3,5] z[3,6] z[3,7] z[3,8] z[3,9]
 z[4,5] z[4,6] z[4,7] z[4,8] z[4,9] z[5,6] z[5,7] z[5,8] z[5,9] z[6,7]
 z[6,8] z[6,9] z[7,8] z[7,9] z[8,9]
End
